15
1 0 6
2 0 2
2 1 4
3 0 5
3 1 3
3 2 5
4 0 2
4 1 2
4 2 7
4 3 2
5 0 3
5 1 6
5 2 7
5 3 7
5 4 5
6 0 7
6 1 4
6 2 6
6 3 5
6 4 6
6 5 3
7 0 4
7 1 3
7 2 6
7 3 5
7 4 3
7 5 1
7 6 5
8 0 5
8 1 7
8 2 7
8 3 7
8 4 7
8 5 6
8 6 3
8 7 6
9 0 2
9 1 1
9 2 3
9 3 6
9 4 7
9 5 7
9 6 6
9 7 6
9 8 2
10 0 4
10 1 6
10 2 7
10 3 2
10 4 1
10 5 7
10 6 7
10 7 5
10 8 1
10 9 5
11 0 7
11 1 7
11 2 5
11 3 5
11 4 3
11 5 3
11 6 5
11 7 5
11 8 4
11 9 3
11 10 6
12 0 6
12 1 3
12 2 7
12 3 7
12 4 6
12 5 2
12 6 5
12 7 2
12 8 2
12 9 1
12 10 6
12 11 7
13 0 6
13 1 2
13 2 2
13 3 7
13 4 5
13 5 2
13 6 4
13 7 7
13 8 6
13 9 5
13 10 7
13 11 4
13 12 7
14 0 1
14 1 7
14 2 5
14 3 6
14 4 6
14 5 5
14 6 5
14 7 7
14 8 2
14 9 5
14 10 4
14 11 2
14 12 2
14 13 5
